
******************************************************************************
This program contains Ipopt, a library for large-scale nonlinear optimization.
 Ipopt is released as open source code under the Eclipse Public License (EPL).
         For more information visit http://projects.coin-or.org/Ipopt

This version of Ipopt was compiled from source code available at
    https://github.com/IDAES/Ipopt as part of the Institute for the Design of
    Advanced Energy Systems Process Systems Engineering Framework (IDAES PSE
    Framework) Copyright (c) 2018-2019. See https://github.com/IDAES/idaes-pse.

This version of Ipopt was compiled using HSL, a collection of Fortran codes
    for large-scale scientific computation.  All technical papers, sales and
    publicity material resulting from use of the HSL codes within IPOPT must
    contain the following acknowledgement:
        HSL, a collection of Fortran codes for large-scale scientific
        computation. See http://www.hsl.rl.ac.uk.
******************************************************************************

This is Ipopt version 3.13.2, running with linear solver ma27.

Number of nonzeros in equality constraint Jacobian...:      928
Number of nonzeros in inequality constraint Jacobian.:        0
Number of nonzeros in Lagrangian Hessian.............:      806

Total number of variables............................:      403
                     variables with only lower bounds:      124
                variables with lower and upper bounds:      217
                     variables with only upper bounds:        0
Total number of equality constraints.................:      402
Total number of inequality constraints...............:        0
        inequality constraints with only lower bounds:        0
   inequality constraints with lower and upper bounds:        0
        inequality constraints with only upper bounds:        0

iter    objective    inf_pr   inf_du lg(mu)  ||d||  lg(rg) alpha_du alpha_pr  ls
   0  0.0000000e+00 8.02e-01 2.46e-14  -1.0 0.00e+00    -  0.00e+00 0.00e+00   0
   1  7.2857237e-01 2.45e-01 6.06e+02  -1.0 7.87e+04    -  2.47e-01 9.90e-01h  1
   2  7.2727388e-01 2.75e-02 1.94e+02  -1.0 4.38e+03    -  7.96e-01 9.90e-01h  1
   3  7.2845594e-01 6.37e-04 2.57e+03  -1.0 6.13e+02    -  9.64e-01 9.90e-01h  1
   4  7.2817312e-01 6.64e-06 6.81e+02  -1.0 8.35e+01    -  9.90e-01 9.90e-01h  1
   5  7.1779641e-01 2.98e-07 3.09e+06  -1.0 4.89e+03    -  9.87e-01 9.90e-01H  1
   6  7.1778011e-01 2.97e-07 9.86e+10  -1.0 6.37e+03    -  9.90e-01 3.87e-03h  9
   7  7.1776408e-01 2.97e-07 1.98e+11  -1.0 6.41e+03    -  1.00e+00 3.87e-03h  9
   8  7.1774847e-01 2.96e-07 2.98e+11  -1.0 6.38e+03    -  1.00e+00 3.87e-03h  9
   9  7.1773330e-01 2.96e-07 3.97e+11  -1.0 6.36e+03    -  1.00e+00 3.87e-03h  9
iter    objective    inf_pr   inf_du lg(mu)  ||d||  lg(rg) alpha_du alpha_pr  ls
  10  7.1771855e-01 2.95e-07 4.97e+11  -1.0 6.33e+03    -  1.00e+00 3.87e-03h  9
  11  7.1770422e-01 2.94e-07 5.97e+11  -1.0 6.31e+03    -  1.00e+00 3.87e-03h  9
  12  7.1769030e-01 2.94e-07 6.96e+11  -1.0 6.29e+03    -  1.00e+00 3.87e-03h  9
  13  7.1767680e-01 2.93e-07 7.96e+11  -1.0 6.26e+03    -  1.00e+00 3.87e-03h  9
  14  7.1766370e-01 2.93e-07 8.96e+11  -1.0 6.24e+03    -  1.00e+00 3.87e-03h  9
  15  7.1765100e-01 2.92e-07 9.95e+11  -1.0 6.21e+03    -  1.00e+00 3.87e-03h  9
  16  7.2586788e-01 3.70e-05 1.10e+10  -1.0 6.19e+03    -  1.00e+00 9.90e-01w  1
  17  7.2605931e-01 3.74e-07 1.04e+11  -1.0 6.35e+01    -  1.00e+00 9.90e-01w  1
In iteration 17, 31 Slacks too small, adjusting variable bounds
  18  7.2606124e-01 3.74e-09 1.04e+13  -1.0 6.35e-01    -  1.00e+00 9.90e-01h  1
  19  7.2606126e-01 5.18e-10 1.00e-06  -1.0 6.35e-03    -  1.00e+00 1.00e+00h  1
iter    objective    inf_pr   inf_du lg(mu)  ||d||  lg(rg) alpha_du alpha_pr  ls
  20  7.1742762e-01 3.15e-10 4.93e+09  -9.0 5.30e+03    -  1.00e+00 1.00e+00F  1
  21  7.1742737e-01 1.45e-09 4.95e-07  -9.0 2.89e+01    -  1.00e+00 1.00e+00h  1

Number of Iterations....: 21

                                   (scaled)                 (unscaled)
Objective...............:   7.1742736680928065e-01    7.1742736680928065e-01
Dual infeasibility......:   4.9515801947563887e-07    4.9515801947563887e-07
Constraint violation....:   1.4490559863133967e-09    1.4490559863133967e-09
Complementarity.........:   3.0178347275252676e-08    3.0178347275252676e-08
Overall NLP error.......:   7.3219251253250976e-09    4.9515801947563887e-07


Number of objective function evaluations             = 135
Number of objective gradient evaluations             = 22
Number of equality constraint evaluations            = 135
Number of inequality constraint evaluations          = 0
Number of equality constraint Jacobian evaluations   = 22
Number of inequality constraint Jacobian evaluations = 0
Number of Lagrangian Hessian evaluations             = 21
Total CPU secs in IPOPT (w/o function evaluations)   =      0.048
Total CPU secs in NLP function evaluations           =      1.007

EXIT: Optimal Solution Found.
